NAME : rnd14_50.tsp.tsp.opt.tour
TYPE : TOUR
DIMENSION : 50
TOUR_SECTION
1
21
50
3
15
4
29
18
6
33
20
14
41
34
47
45
35
32
12
39
43
13
40
5
24
44
19
7
42
46
49
25
8
36
30
16
2
11
9
37
17
48
31
38
27
23
22
26
28
10
-1